/*********************************************
 * OPL 12.10.0.0 Data
 * Author: maxime
 * Creation Date: 4 janv. 2022 at 16:08:52
 *********************************************/

 motions_x_y = { 
  < 0, 0>,
  < 1, 2>,
  <-1, 2>,
  < 1,-2>,
  <-1,-2>,
  < 2,-1>,
  < 2, 1>,
  <-2,-1>,
  <-2, 1>
};

